NAME:  test1
TYPE: AGTSP
COMMENT: gtsp tours
DIMENSION:  61
GTSP_SETS: 13
EDGE_WEIGHT_TYPE: EXPLICIT
EDGE_WEIGHT_FORMAT: FULL_MATRIX 
EDGE_WEIGHT_SECTION
999999	0	999999	999999	999999	17999	17999	17999	17991	999999	18001	18001	18001	17993	999999	18005	18005	18005	17997	999999	18007	18007	18007	17999	999999	18003	18003	18003	17995	999999	18016	18016	18016	18016	18008	17979	17979	17971
999999	999999	0	999999	999999	17999	17999	17999	17999	17991	18001	18001	18001	18001	17993	18005	18005	18005	18005	17997	18007	18007	18007	18007	17999	18003	18003	18003	18003	17995	18016	18016	18016	999999	999999	17979	17979	17979
999999	999999	999999	0	999999	17999	17999	17999	17999	999999	18001	18001	18001	18001	999999	18005	18005	18005	18005	999999	18007	18007	18007	18007	999999	18003	18003	18003	18003	999999	18016	18016	18016	18016	999999	17979	17979	17979
999999	999999	999999	999999	0	17999	17999	17999	17999	17999	18001	18001	18001	18001	18001	18005	18005	18005	18005	18005	18007	18007	18007	18007	18007	18003	18003	18003	18003	18003	18016	18016	18016	18016	18016	17979	17979	17979
0	999999	999999	999999	999999	17999	17999	17991	999999	999999	18001	18001	17993	999999	999999	18005	18005	17997	999999	999999	18007	18007	17999	999999	999999	18003	18003	17995	999999	999999	18016	18016	18016	18008	999999	17979	17971	999999
17999	17999	17999	17991	999999	999999	0	999999	999999	999999	18019	18019	18019	18019	18011	18000	18000	18000	17992	999999	17991	17991	17983	999999	999999	17982	17982	17974	999999	999999	17995	17995	17995	17987	999999	18000	18000	18000
17999	17999	17999	17999	17991	999999	999999	0	999999	999999	18019	18019	18019	999999	999999	18000	18000	18000	18000	17992	17991	17991	17991	17983	999999	17982	17982	17982	17974	999999	17995	17995	17995	17995	17987	18000	18000	18000
17999	17999	17999	17999	999999	999999	999999	999999	0	999999	18019	18019	18019	18019	999999	18000	18000	18000	18000	999999	17991	17991	17991	17991	17983	17982	17982	17982	17982	17974	17995	17995	17995	17995	999999	18000	18000	18000
17999	17999	17999	17999	17999	999999	999999	999999	999999	0	18019	18019	18019	18019	18019	18000	18000	18000	18000	18000	17991	17991	17991	17991	17991	17982	17982	17982	17982	17982	17995	17995	17995	17995	17995	18000	18000	18000
17999	17999	17991	999999	999999	0	999999	999999	999999	999999	18019	18019	18019	18011	999999	18000	18000	17992	999999	999999	17991	17983	999999	999999	999999	17982	17974	999999	999999	999999	17995	17995	17987	999999	999999	18000	18000	17992
18001	18001	18001	17993	999999	18019	18019	18019	18019	18011	999999	0	999999	999999	999999	18009	18009	18009	18001	999999	18019	18019	18019	18019	18011	18021	18021	18021	18021	18013	18030	18030	999999	999999	999999	17998	17998	17998
18001	18001	18001	18001	17993	18019	18019	18019	999999	999999	999999	999999	0	999999	999999	18009	18009	18009	18009	18001	18019	18019	18019	999999	999999	18021	18021	18021	999999	999999	18030	18030	18030	999999	999999	17998	17998	17998
18001	18001	18001	18001	999999	18019	18019	18019	18019	999999	999999	999999	999999	0	999999	18009	18009	18009	18009	999999	18019	18019	18019	18019	999999	18021	18021	18021	18021	999999	18030	18030	18030	18030	999999	17998	17998	17998
18001	18001	18001	18001	18001	18019	18019	18019	18019	18019	999999	999999	999999	999999	0	18009	18009	18009	18009	18009	18019	18019	18019	18019	18019	18021	18021	18021	18021	18021	18030	18030	18030	18030	18030	17998	17998	17998
18001	18001	17993	999999	999999	18019	18019	18019	18011	999999	0	999999	999999	999999	999999	18009	18009	18001	999999	999999	18019	18019	18019	18011	999999	18021	18021	18021	18013	999999	18030	18030	18030	18030	18022	17998	17998	17990
18005	18005	18005	17997	999999	18000	18000	18000	17992	999999	18009	18009	18009	18001	999999	999999	0	999999	999999	999999	17989	17989	17981	999999	999999	17997	17997	17997	17989	999999	18000	18000	18000	17992	999999	18002	18002	18002
18005	18005	18005	18005	17997	18000	18000	18000	18000	17992	18009	18009	18009	18009	18001	999999	999999	0	999999	999999	17989	17989	17989	17981	999999	17997	17997	17997	17997	17989	18000	18000	18000	18000	17992	18002	18002	18002
18005	18005	18005	18005	999999	18000	18000	18000	18000	999999	18009	18009	18009	18009	999999	999999	999999	999999	0	999999	17989	17989	17989	17989	17981	17997	17997	17997	17997	999999	18000	18000	18000	18000	999999	18002	18002	18002
18005	18005	18005	18005	18005	18000	18000	18000	18000	18000	18009	18009	18009	18009	18009	999999	999999	999999	999999	0	17989	17989	17989	17989	17989	17997	17997	17997	17997	17997	18000	18000	18000	18000	18000	18002	18002	18002
18005	18005	17997	999999	999999	18000	18000	17992	999999	999999	18009	18009	18001	999999	999999	0	999999	999999	999999	999999	17989	17981	999999	999999	999999	17997	17997	17989	999999	999999	18000	18000	17992	999999	999999	18002	18002	17994
18007	18007	18007	17999	999999	17991	17991	17983	999999	999999	18019	18019	18019	18019	18011	17989	17989	17981	999999	999999	999999	0	999999	999999	999999	17986	17986	17978	999999	999999	17987	17987	17979	999999	999999	18005	18005	18005
18007	18007	18007	18007	17999	17991	17991	17991	17983	999999	18019	18019	18019	999999	999999	17989	17989	17989	17981	999999	999999	999999	0	999999	999999	17986	17986	17986	17978	999999	17987	17987	17987	17979	999999	18005	18005	18005
18007	18007	18007	18007	999999	17991	17991	17991	17991	17983	18019	18019	18019	18019	999999	17989	17989	17989	17989	17981	999999	999999	999999	0	999999	17986	17986	17986	17986	17978	17987	17987	17987	17987	17979	18005	18005	18005
18007	18007	18007	18007	18007	17991	17991	17991	17991	17991	18019	18019	18019	18019	18019	17989	17989	17989	17989	17989	999999	999999	999999	999999	0	17986	17986	17986	17986	17986	17987	17987	17987	17987	17987	18005	18005	18005
18007	18007	17999	999999	999999	17991	17983	999999	999999	999999	18019	18019	18019	18011	999999	17989	17981	999999	999999	999999	0	999999	999999	999999	999999	17986	17978	999999	999999	999999	17987	17979	999999	999999	999999	18005	18005	17997
18003	18003	18003	17995	999999	17982	17982	17974	999999	999999	18021	18021	18021	18021	18013	17997	17997	17997	17989	999999	17986	17986	17978	999999	999999	999999	0	999999	999999	999999	17989	17989	17981	999999	999999	18003	18003	18003
18003	18003	18003	18003	17995	17982	17982	17982	17974	999999	18021	18021	18021	999999	999999	17997	17997	17997	17997	17989	17986	17986	17986	17978	999999	999999	999999	0	999999	999999	17989	17989	17989	17981	999999	18003	18003	18003
18003	18003	18003	18003	999999	17982	17982	17982	17982	17974	18021	18021	18021	18021	999999	17997	17997	17997	17997	999999	17986	17986	17986	17986	17978	999999	999999	999999	0	999999	17989	17989	17989	17989	17981	18003	18003	18003
18003	18003	18003	18003	18003	17982	17982	17982	17982	17982	18021	18021	18021	18021	18021	17997	17997	17997	17997	17997	17986	17986	17986	17986	17986	999999	999999	999999	999999	0	17989	17989	17989	17989	17989	18003	18003	18003
18003	18003	17995	999999	999999	17982	17974	999999	999999	999999	18021	18021	18021	18013	999999	17997	17997	17989	999999	999999	17986	17978	999999	999999	999999	0	999999	999999	999999	999999	17989	17981	999999	999999	999999	18003	18003	17995
18016	18016	18016	18016	18008	17995	17995	17995	17987	999999	18030	18030	999999	999999	999999	18000	18000	18000	17992	999999	17987	17987	17979	999999	999999	17989	17989	17981	999999	999999	999999	0	999999	999999	999999	18015	18015	18015
18016	18016	18016	999999	999999	17995	17995	17995	17995	17987	18030	18030	18030	999999	999999	18000	18000	18000	18000	17992	17987	17987	17987	17979	999999	17989	17989	17989	17981	999999	999999	999999	0	999999	999999	18015	18015	18015
18016	18016	18016	18016	999999	17995	17995	17995	17995	999999	18030	18030	18030	18030	999999	18000	18000	18000	18000	999999	17987	17987	17987	17987	17979	17989	17989	17989	17989	17981	999999	999999	999999	0	999999	18015	18015	18015
18016	18016	18016	18016	18016	17995	17995	17995	17995	17995	18030	18030	18030	18030	18030	18000	18000	18000	18000	18000	17987	17987	17987	17987	17987	17989	17989	17989	17989	17989	999999	999999	999999	999999	0	18015	18015	18015
18016	18016	18016	18008	999999	17995	17995	17987	999999	999999	18030	18030	18030	18030	18022	18000	18000	17992	999999	999999	17987	17979	999999	999999	999999	17989	17981	999999	999999	999999	0	999999	999999	999999	999999	18015	18015	18015
17979	17979	17971	999999	999999	18000	18000	18000	17992	999999	17998	17998	17998	17990	999999	18002	18002	18002	17994	999999	18005	18005	18005	17997	999999	18003	18003	18003	17995	999999	18015	18015	18015	18015	18007	999999	0	999999
17979	17979	17979	17971	999999	18000	18000	18000	18000	17992	17998	17998	17998	17998	17990	18002	18002	18002	18002	17994	18005	18005	18005	18005	17997	18003	18003	18003	18003	17995	18015	18015	18015	999999	999999	999999	999999	0
17979	17979	17979	17979	17971	18000	18000	18000	18000	999999	17998	17998	17998	17998	999999	18002	18002	18002	18002	999999	18005	18005	18005	18005	999999	18003	18003	18003	18003	999999	18015	18015	18015	18015	999999	999999	999999	999999
GTSP_SET_SECTION:
1 1 2 3 4 5 -1
2 6 7 8 9 10 -1
3 11 12 13 14 15 -1
4 16 17 18 19 20 -1
5 21 22 23 24 25 -1
6 26 27 28 29 30 -1
7 31 32 33 34 35 -1
8 36 37 38 39 40 -1
9 41 42 43 44 45 -1
10 46 47 48 49 50 -1
11 51 52 53 54 55 -1
12 56 57 58 59 60 -1
13 61 -1
EOF